\ Model sp_9_1
\ LP format - for model browsing. Use MPS format to capture full model detail.
\ Signature: 0x5b6ef6aeab80ea12
Minimize
  26.93 y[0,2] + 65.19 y[0,3] + 23.41 y[0,5] + 76.9 y[0,6] + 80.53 y[0,7]
   + 63.89 y[0,8] + 80.53 y[1,2] + 43.68 y[1,3] + 4 y[1,4] + 36.4 y[1,6]
   + 48.37 y[1,8] + 26.93 y[2,0] + 80.53 y[2,1] + 38.95 y[2,3]
   + 82.49 y[2,4] + 6.08 y[2,5] + 58.14 y[2,6] + 82.04 y[2,7]
   + 47.17 y[2,8] + 65.19 y[3,0] + 43.68 y[3,1] + 38.95 y[3,2]
   + 44.94 y[3,4] + 44.2 y[3,5] + 36.4 y[3,6] + 34.99 y[3,8] + 4 y[4,1]
   + 82.49 y[4,2] + 44.94 y[4,3] + 40.16 y[4,6] + 51.88 y[4,8]
   + 23.41 y[5,0] + 6.08 y[5,2] + 44.2 y[5,3] + 64.2 y[5,6] + 85.8 y[5,7]
   + 53.08 y[5,8] + 76.9 y[6,0] + 36.4 y[6,1] + 58.14 y[6,2] + 36.4 y[6,3]
   + 40.16 y[6,4] + 64.2 y[6,5] + 61.01 y[6,7] + 13.6 y[6,8] + 80.53 y[7,0]
   + 82.04 y[7,2] + 85.8 y[7,5] + 61.01 y[7,6] + 54.34 y[7,8]
   + 63.89 y[8,0] + 48.37 y[8,1] + 47.17 y[8,2] + 34.99 y[8,3]
   + 51.88 y[8,4] + 53.08 y[8,5] + 13.6 y[8,6] + 54.34 y[8,7]
   + 2.693 r[0,2] + 6.519 r[0,3] + 2.341 r[0,5] + 7.69 r[0,6]
   + 8.053 r[0,7] + 6.389 r[0,8] + 8.053 r[1,2] + 4.368 r[1,3] + 0.4 r[1,4]
   + 3.64 r[1,6] + 4.837 r[1,8] + 2.693 r[2,0] + 8.053 r[2,1]
   + 3.895 r[2,3] + 8.249 r[2,4] + 0.608 r[2,5] + 5.814 r[2,6]
   + 8.204 r[2,7] + 4.717 r[2,8] + 6.519 r[3,0] + 4.368 r[3,1]
   + 3.895 r[3,2] + 4.494 r[3,4] + 4.42 r[3,5] + 3.64 r[3,6] + 3.499 r[3,8]
   + 0.4 r[4,1] + 8.249 r[4,2] + 4.494 r[4,3] + 4.016 r[4,6] + 5.188 r[4,8]
   + 2.341 r[5,0] + 0.608 r[5,2] + 4.42 r[5,3] + 6.42 r[5,6] + 8.58 r[5,7]
   + 5.308 r[5,8] + 7.69 r[6,0] + 3.64 r[6,1] + 5.814 r[6,2] + 3.64 r[6,3]
   + 4.016 r[6,4] + 6.42 r[6,5] + 6.101 r[6,7] + 1.36 r[6,8] + 8.053 r[7,0]
   + 8.204 r[7,2] + 8.58 r[7,5] + 6.101 r[7,6] + 5.434 r[7,8]
   + 6.389 r[8,0] + 4.837 r[8,1] + 4.717 r[8,2] + 3.499 r[8,3]
   + 5.188 r[8,4] + 5.308 r[8,5] + 1.36 r[8,6] + 5.434 r[8,7]
Subject To
 flow_cons_inner_nodes[1]: - y[1,2] - y[1,3] - y[1,4] - y[1,6] - y[1,8]
   + y[2,1] + y[3,1] + y[4,1] + y[6,1] + y[8,1] = 0
 flow_cons_inner_nodes[2]: y[0,2] + y[1,2] - y[2,0] - y[2,1] - y[2,3]
   - y[2,4] - y[2,5] - y[2,6] - y[2,7] - y[2,8] + y[3,2] + y[4,2] + y[5,2]
   + y[6,2] + y[7,2] + y[8,2] = 0
 flow_cons_inner_nodes[3]: y[0,3] + y[1,3] + y[2,3] - y[3,0] - y[3,1]
   - y[3,2] - y[3,4] - y[3,5] - y[3,6] - y[3,8] + y[4,3] + y[5,3] + y[6,3]
   + y[8,3] = 0
 flow_cons_inner_nodes[5]: y[0,5] + y[2,5] + y[3,5] - y[5,0] - y[5,2]
   - y[5,3] - y[5,6] - y[5,7] - y[5,8] + y[6,5] + y[7,5] + y[8,5] = 0
 flow_cons_inner_nodes[6]: y[0,6] + y[1,6] + y[2,6] + y[3,6] + y[4,6]
   + y[5,6] - y[6,0] - y[6,1] - y[6,2] - y[6,3] - y[6,4] - y[6,5] - y[6,7]
   - y[6,8] + y[7,6] + y[8,6] = 0
 flow_cons_inner_nodes[7]: y[0,7] + y[2,7] + y[5,7] + y[6,7] - y[7,0]
   - y[7,2] - y[7,5] - y[7,6] - y[7,8] + y[8,7] = 0
 flow_cons_inner_nodes[8]: y[0,8] + y[1,8] + y[2,8] + y[3,8] + y[4,8]
   + y[5,8] + y[6,8] + y[7,8] - y[8,0] - y[8,1] - y[8,2] - y[8,3] - y[8,4]
   - y[8,5] - y[8,6] - y[8,7] = 0
 flow_cons_source: y[0,2] + y[0,3] + y[0,5] + y[0,6] + y[0,7] + y[0,8]
   - y[2,0] - y[3,0] - y[5,0] - y[6,0] - y[7,0] - y[8,0] = 1
 flow_cons_target: y[1,4] + y[2,4] + y[3,4] - y[4,1] - y[4,2] - y[4,3]
   - y[4,6] - y[4,8] + y[6,4] + y[8,4] = 1
 primal_lower: - 0.57 y[0,2] - 3.03 y[0,3] - 0.66 y[0,5] - 1.2 y[0,6]
   - 1.63 y[0,7] - 4.28 y[0,8] - 3.32 y[1,2] - 2.7 y[1,3] - 0.14 y[1,4]
   - 3.66 y[1,6] - 1.97 y[1,8] - 4 y[2,0] - 1.27 y[2,1] - 0.28 y[2,3]
   - 4.32 y[2,4] - 1.1 y[2,5] - 2.02 y[2,6] - 1.58 y[2,7] - 0.38 y[2,8]
   - 4.2 y[3,0] - 4.23 y[3,1] - 4.84 y[3,2] - 1.92 y[3,4] - 4.76 y[3,5]
   - 2.22 y[3,6] - 3.34 y[3,8] - 0.41 y[4,1] - 4.47 y[4,2] - 1.48 y[4,3]
   - 1.31 y[4,6] - 0.03 y[4,8] - 2.71 y[5,0] - 2.37 y[5,2] - 3.17 y[5,3]
   - 4.87 y[5,6] - 4.53 y[5,7] - 4.54 y[5,8] - 2.62 y[6,0] - 0.52 y[6,1]
   - 0.9 y[6,2] - 4.75 y[6,3] - 2.05 y[6,4] - 4.31 y[6,5] - 3.35 y[6,7]
   - 3.13 y[6,8] - 1.37 y[7,0] - 4.47 y[7,2] - 1.03 y[7,5] - 2.02 y[7,6]
   - 4.95 y[7,8] - 3.67 y[8,0] - 2.22 y[8,1] - 2.79 y[8,2] - 2.05 y[8,3]
   - 3.62 y[8,4] - 1.99 y[8,5] - 3.34 y[8,6] - 3.51 y[8,7] + 58 u[0,2]
   + 35 u[0,3] + 35 u[0,5] + 51 u[0,6] + 73 u[0,7] + 49 u[0,8] + 30 u[1,2]
   + 85 u[1,3] + 39 u[1,4] + 82 u[1,6] + 92 u[1,8] + 58 u[2,0] + 4 u[2,1]
   + 58 u[2,3] + 90 u[2,4] + 76 u[2,5] + 8 u[2,6] + 95 u[2,7] + 57 u[2,8]
   + 67 u[3,0] + 18 u[3,1] + 96 u[3,2] + 70 u[3,4] + 28 u[3,5] + 55 u[3,6]
   + 24 u[3,8] + 95 u[4,1] + 11 u[4,2] + 95 u[4,3] + 24 u[4,6] + 3 u[4,8]
   + 77 u[5,0] + 68 u[5,2] + 51 u[5,3] + 23 u[5,6] + 63 u[5,7] + 96 u[5,8]
   + 27 u[6,0] + 29 u[6,1] + 62 u[6,2] + 100 u[6,3] + 6 u[6,4] + 42 u[6,5]
   + 88 u[6,7] + 27 u[6,8] + 25 u[7,0] + 21 u[7,2] + 85 u[7,5] + 83 u[7,6]
   + 58 u[7,8] + 19 u[8,0] + 71 u[8,1] + 33 u[8,2] + 69 u[8,3] + 78 u[8,4]
   + 80 u[8,5] + 68 u[8,6] + 71 u[8,7] <= 289
 mccormick1[0,2]: - u[0,2] + r[0,2] <= 0
 mccormick1[0,3]: - u[0,3] + r[0,3] <= 0
 mccormick1[0,5]: - u[0,5] + r[0,5] <= 0
 mccormick1[0,6]: - u[0,6] + r[0,6] <= 0
 mccormick1[0,7]: - u[0,7] + r[0,7] <= 0
 mccormick1[0,8]: - u[0,8] + r[0,8] <= 0
 mccormick1[1,2]: - u[1,2] + r[1,2] <= 0
 mccormick1[1,3]: - u[1,3] + r[1,3] <= 0
 mccormick1[1,4]: - u[1,4] + r[1,4] <= 0
 mccormick1[1,6]: - u[1,6] + r[1,6] <= 0
 mccormick1[1,8]: - u[1,8] + r[1,8] <= 0
 mccormick1[2,0]: - u[2,0] + r[2,0] <= 0
 mccormick1[2,1]: - u[2,1] + r[2,1] <= 0
 mccormick1[2,3]: - u[2,3] + r[2,3] <= 0
 mccormick1[2,4]: - u[2,4] + r[2,4] <= 0
 mccormick1[2,5]: - u[2,5] + r[2,5] <= 0
 mccormick1[2,6]: - u[2,6] + r[2,6] <= 0
 mccormick1[2,7]: - u[2,7] + r[2,7] <= 0
 mccormick1[2,8]: - u[2,8] + r[2,8] <= 0
 mccormick1[3,0]: - u[3,0] + r[3,0] <= 0
 mccormick1[3,1]: - u[3,1] + r[3,1] <= 0
 mccormick1[3,2]: - u[3,2] + r[3,2] <= 0
 mccormick1[3,4]: - u[3,4] + r[3,4] <= 0
 mccormick1[3,5]: - u[3,5] + r[3,5] <= 0
 mccormick1[3,6]: - u[3,6] + r[3,6] <= 0
 mccormick1[3,8]: - u[3,8] + r[3,8] <= 0
 mccormick1[4,1]: - u[4,1] + r[4,1] <= 0
 mccormick1[4,2]: - u[4,2] + r[4,2] <= 0
 mccormick1[4,3]: - u[4,3] + r[4,3] <= 0
 mccormick1[4,6]: - u[4,6] + r[4,6] <= 0
 mccormick1[4,8]: - u[4,8] + r[4,8] <= 0
 mccormick1[5,0]: - u[5,0] + r[5,0] <= 0
 mccormick1[5,2]: - u[5,2] + r[5,2] <= 0
 mccormick1[5,3]: - u[5,3] + r[5,3] <= 0
 mccormick1[5,6]: - u[5,6] + r[5,6] <= 0
 mccormick1[5,7]: - u[5,7] + r[5,7] <= 0
 mccormick1[5,8]: - u[5,8] + r[5,8] <= 0
 mccormick1[6,0]: - u[6,0] + r[6,0] <= 0
 mccormick1[6,1]: - u[6,1] + r[6,1] <= 0
 mccormick1[6,2]: - u[6,2] + r[6,2] <= 0
 mccormick1[6,3]: - u[6,3] + r[6,3] <= 0
 mccormick1[6,4]: - u[6,4] + r[6,4] <= 0
 mccormick1[6,5]: - u[6,5] + r[6,5] <= 0
 mccormick1[6,7]: - u[6,7] + r[6,7] <= 0
 mccormick1[6,8]: - u[6,8] + r[6,8] <= 0
 mccormick1[7,0]: - u[7,0] + r[7,0] <= 0
 mccormick1[7,2]: - u[7,2] + r[7,2] <= 0
 mccormick1[7,5]: - u[7,5] + r[7,5] <= 0
 mccormick1[7,6]: - u[7,6] + r[7,6] <= 0
 mccormick1[7,8]: - u[7,8] + r[7,8] <= 0
 mccormick1[8,0]: - u[8,0] + r[8,0] <= 0
 mccormick1[8,1]: - u[8,1] + r[8,1] <= 0
 mccormick1[8,2]: - u[8,2] + r[8,2] <= 0
 mccormick1[8,3]: - u[8,3] + r[8,3] <= 0
 mccormick1[8,4]: - u[8,4] + r[8,4] <= 0
 mccormick1[8,5]: - u[8,5] + r[8,5] <= 0
 mccormick1[8,6]: - u[8,6] + r[8,6] <= 0
 mccormick1[8,7]: - u[8,7] + r[8,7] <= 0
 mccormick2[0,2]: - y[0,2] + r[0,2] <= 0
 mccormick2[0,3]: - y[0,3] + r[0,3] <= 0
 mccormick2[0,5]: - y[0,5] + r[0,5] <= 0
 mccormick2[0,6]: - y[0,6] + r[0,6] <= 0
 mccormick2[0,7]: - y[0,7] + r[0,7] <= 0
 mccormick2[0,8]: - y[0,8] + r[0,8] <= 0
 mccormick2[1,2]: - y[1,2] + r[1,2] <= 0
 mccormick2[1,3]: - y[1,3] + r[1,3] <= 0
 mccormick2[1,4]: - y[1,4] + r[1,4] <= 0
 mccormick2[1,6]: - y[1,6] + r[1,6] <= 0
 mccormick2[1,8]: - y[1,8] + r[1,8] <= 0
 mccormick2[2,0]: - y[2,0] + r[2,0] <= 0
 mccormick2[2,1]: - y[2,1] + r[2,1] <= 0
 mccormick2[2,3]: - y[2,3] + r[2,3] <= 0
 mccormick2[2,4]: - y[2,4] + r[2,4] <= 0
 mccormick2[2,5]: - y[2,5] + r[2,5] <= 0
 mccormick2[2,6]: - y[2,6] + r[2,6] <= 0
 mccormick2[2,7]: - y[2,7] + r[2,7] <= 0
 mccormick2[2,8]: - y[2,8] + r[2,8] <= 0
 mccormick2[3,0]: - y[3,0] + r[3,0] <= 0
 mccormick2[3,1]: - y[3,1] + r[3,1] <= 0
 mccormick2[3,2]: - y[3,2] + r[3,2] <= 0
 mccormick2[3,4]: - y[3,4] + r[3,4] <= 0
 mccormick2[3,5]: - y[3,5] + r[3,5] <= 0
 mccormick2[3,6]: - y[3,6] + r[3,6] <= 0
 mccormick2[3,8]: - y[3,8] + r[3,8] <= 0
 mccormick2[4,1]: - y[4,1] + r[4,1] <= 0
 mccormick2[4,2]: - y[4,2] + r[4,2] <= 0
 mccormick2[4,3]: - y[4,3] + r[4,3] <= 0
 mccormick2[4,6]: - y[4,6] + r[4,6] <= 0
 mccormick2[4,8]: - y[4,8] + r[4,8] <= 0
 mccormick2[5,0]: - y[5,0] + r[5,0] <= 0
 mccormick2[5,2]: - y[5,2] + r[5,2] <= 0
 mccormick2[5,3]: - y[5,3] + r[5,3] <= 0
 mccormick2[5,6]: - y[5,6] + r[5,6] <= 0
 mccormick2[5,7]: - y[5,7] + r[5,7] <= 0
 mccormick2[5,8]: - y[5,8] + r[5,8] <= 0
 mccormick2[6,0]: - y[6,0] + r[6,0] <= 0
 mccormick2[6,1]: - y[6,1] + r[6,1] <= 0
 mccormick2[6,2]: - y[6,2] + r[6,2] <= 0
 mccormick2[6,3]: - y[6,3] + r[6,3] <= 0
 mccormick2[6,4]: - y[6,4] + r[6,4] <= 0
 mccormick2[6,5]: - y[6,5] + r[6,5] <= 0
 mccormick2[6,7]: - y[6,7] + r[6,7] <= 0
 mccormick2[6,8]: - y[6,8] + r[6,8] <= 0
 mccormick2[7,0]: - y[7,0] + r[7,0] <= 0
 mccormick2[7,2]: - y[7,2] + r[7,2] <= 0
 mccormick2[7,5]: - y[7,5] + r[7,5] <= 0
 mccormick2[7,6]: - y[7,6] + r[7,6] <= 0
 mccormick2[7,8]: - y[7,8] + r[7,8] <= 0
 mccormick2[8,0]: - y[8,0] + r[8,0] <= 0
 mccormick2[8,1]: - y[8,1] + r[8,1] <= 0
 mccormick2[8,2]: - y[8,2] + r[8,2] <= 0
 mccormick2[8,3]: - y[8,3] + r[8,3] <= 0
 mccormick2[8,4]: - y[8,4] + r[8,4] <= 0
 mccormick2[8,5]: - y[8,5] + r[8,5] <= 0
 mccormick2[8,6]: - y[8,6] + r[8,6] <= 0
 mccormick2[8,7]: - y[8,7] + r[8,7] <= 0
 mccormick3[0,2]: - y[0,2] - u[0,2] + r[0,2] >= -1
 mccormick3[0,3]: - y[0,3] - u[0,3] + r[0,3] >= -1
 mccormick3[0,5]: - y[0,5] - u[0,5] + r[0,5] >= -1
 mccormick3[0,6]: - y[0,6] - u[0,6] + r[0,6] >= -1
 mccormick3[0,7]: - y[0,7] - u[0,7] + r[0,7] >= -1
 mccormick3[0,8]: - y[0,8] - u[0,8] + r[0,8] >= -1
 mccormick3[1,2]: - y[1,2] - u[1,2] + r[1,2] >= -1
 mccormick3[1,3]: - y[1,3] - u[1,3] + r[1,3] >= -1
 mccormick3[1,4]: - y[1,4] - u[1,4] + r[1,4] >= -1
 mccormick3[1,6]: - y[1,6] - u[1,6] + r[1,6] >= -1
 mccormick3[1,8]: - y[1,8] - u[1,8] + r[1,8] >= -1
 mccormick3[2,0]: - y[2,0] - u[2,0] + r[2,0] >= -1
 mccormick3[2,1]: - y[2,1] - u[2,1] + r[2,1] >= -1
 mccormick3[2,3]: - y[2,3] - u[2,3] + r[2,3] >= -1
 mccormick3[2,4]: - y[2,4] - u[2,4] + r[2,4] >= -1
 mccormick3[2,5]: - y[2,5] - u[2,5] + r[2,5] >= -1
 mccormick3[2,6]: - y[2,6] - u[2,6] + r[2,6] >= -1
 mccormick3[2,7]: - y[2,7] - u[2,7] + r[2,7] >= -1
 mccormick3[2,8]: - y[2,8] - u[2,8] + r[2,8] >= -1
 mccormick3[3,0]: - y[3,0] - u[3,0] + r[3,0] >= -1
 mccormick3[3,1]: - y[3,1] - u[3,1] + r[3,1] >= -1
 mccormick3[3,2]: - y[3,2] - u[3,2] + r[3,2] >= -1
 mccormick3[3,4]: - y[3,4] - u[3,4] + r[3,4] >= -1
 mccormick3[3,5]: - y[3,5] - u[3,5] + r[3,5] >= -1
 mccormick3[3,6]: - y[3,6] - u[3,6] + r[3,6] >= -1
 mccormick3[3,8]: - y[3,8] - u[3,8] + r[3,8] >= -1
 mccormick3[4,1]: - y[4,1] - u[4,1] + r[4,1] >= -1
 mccormick3[4,2]: - y[4,2] - u[4,2] + r[4,2] >= -1
 mccormick3[4,3]: - y[4,3] - u[4,3] + r[4,3] >= -1
 mccormick3[4,6]: - y[4,6] - u[4,6] + r[4,6] >= -1
 mccormick3[4,8]: - y[4,8] - u[4,8] + r[4,8] >= -1
 mccormick3[5,0]: - y[5,0] - u[5,0] + r[5,0] >= -1
 mccormick3[5,2]: - y[5,2] - u[5,2] + r[5,2] >= -1
 mccormick3[5,3]: - y[5,3] - u[5,3] + r[5,3] >= -1
 mccormick3[5,6]: - y[5,6] - u[5,6] + r[5,6] >= -1
 mccormick3[5,7]: - y[5,7] - u[5,7] + r[5,7] >= -1
 mccormick3[5,8]: - y[5,8] - u[5,8] + r[5,8] >= -1
 mccormick3[6,0]: - y[6,0] - u[6,0] + r[6,0] >= -1
 mccormick3[6,1]: - y[6,1] - u[6,1] + r[6,1] >= -1
 mccormick3[6,2]: - y[6,2] - u[6,2] + r[6,2] >= -1
 mccormick3[6,3]: - y[6,3] - u[6,3] + r[6,3] >= -1
 mccormick3[6,4]: - y[6,4] - u[6,4] + r[6,4] >= -1
 mccormick3[6,5]: - y[6,5] - u[6,5] + r[6,5] >= -1
 mccormick3[6,7]: - y[6,7] - u[6,7] + r[6,7] >= -1
 mccormick3[6,8]: - y[6,8] - u[6,8] + r[6,8] >= -1
 mccormick3[7,0]: - y[7,0] - u[7,0] + r[7,0] >= -1
 mccormick3[7,2]: - y[7,2] - u[7,2] + r[7,2] >= -1
 mccormick3[7,5]: - y[7,5] - u[7,5] + r[7,5] >= -1
 mccormick3[7,6]: - y[7,6] - u[7,6] + r[7,6] >= -1
 mccormick3[7,8]: - y[7,8] - u[7,8] + r[7,8] >= -1
 mccormick3[8,0]: - y[8,0] - u[8,0] + r[8,0] >= -1
 mccormick3[8,1]: - y[8,1] - u[8,1] + r[8,1] >= -1
 mccormick3[8,2]: - y[8,2] - u[8,2] + r[8,2] >= -1
 mccormick3[8,3]: - y[8,3] - u[8,3] + r[8,3] >= -1
 mccormick3[8,4]: - y[8,4] - u[8,4] + r[8,4] >= -1
 mccormick3[8,5]: - y[8,5] - u[8,5] + r[8,5] >= -1
 mccormick3[8,6]: - y[8,6] - u[8,6] + r[8,6] >= -1
 mccormick3[8,7]: - y[8,7] - u[8,7] + r[8,7] >= -1
Bounds
Binaries
 y[0,2] y[0,3] y[0,5] y[0,6] y[0,7] y[0,8] y[1,2] y[1,3] y[1,4] y[1,6]
 y[1,8] y[2,0] y[2,1] y[2,3] y[2,4] y[2,5] y[2,6] y[2,7] y[2,8] y[3,0]
 y[3,1] y[3,2] y[3,4] y[3,5] y[3,6] y[3,8] y[4,1] y[4,2] y[4,3] y[4,6]
 y[4,8] y[5,0] y[5,2] y[5,3] y[5,6] y[5,7] y[5,8] y[6,0] y[6,1] y[6,2]
 y[6,3] y[6,4] y[6,5] y[6,7] y[6,8] y[7,0] y[7,2] y[7,5] y[7,6] y[7,8]
 y[8,0] y[8,1] y[8,2] y[8,3] y[8,4] y[8,5] y[8,6] y[8,7] u[0,2] u[0,3]
 u[0,5] u[0,6] u[0,7] u[0,8] u[1,2] u[1,3] u[1,4] u[1,6] u[1,8] u[2,0]
 u[2,1] u[2,3] u[2,4] u[2,5] u[2,6] u[2,7] u[2,8] u[3,0] u[3,1] u[3,2]
 u[3,4] u[3,5] u[3,6] u[3,8] u[4,1] u[4,2] u[4,3] u[4,6] u[4,8] u[5,0]
 u[5,2] u[5,3] u[5,6] u[5,7] u[5,8] u[6,0] u[6,1] u[6,2] u[6,3] u[6,4]
 u[6,5] u[6,7] u[6,8] u[7,0] u[7,2] u[7,5] u[7,6] u[7,8] u[8,0] u[8,1]
 u[8,2] u[8,3] u[8,4] u[8,5] u[8,6] u[8,7] r[0,2] r[0,3] r[0,5] r[0,6]
 r[0,7] r[0,8] r[1,2] r[1,3] r[1,4] r[1,6] r[1,8] r[2,0] r[2,1] r[2,3]
 r[2,4] r[2,5] r[2,6] r[2,7] r[2,8] r[3,0] r[3,1] r[3,2] r[3,4] r[3,5]
 r[3,6] r[3,8] r[4,1] r[4,2] r[4,3] r[4,6] r[4,8] r[5,0] r[5,2] r[5,3]
 r[5,6] r[5,7] r[5,8] r[6,0] r[6,1] r[6,2] r[6,3] r[6,4] r[6,5] r[6,7]
 r[6,8] r[7,0] r[7,2] r[7,5] r[7,6] r[7,8] r[8,0] r[8,1] r[8,2] r[8,3]
 r[8,4] r[8,5] r[8,6] r[8,7]
End
